1	80
44 1	66 1	8 1	34 1	45 1	17 1	55 1	70 1	79 1	28 1	27 1	50 1	11 1	10 1	67 1	40 1	61 1	0 1	71 1	32 1	77 1	7 1	60 1	46 1	13 1	39 1	62 1	14 1	51 1	31 1	24 1	64 1	15 1	26 1	19 1	12 1	22 1	68 1	33 1	47 1	37 1	36 1	63 1	49 1	56 1	6 1	29 1	59 1	53 1	78 1	4 1	52 1	1 1	69 1	58 1	9 1	30 1	76 1	18 1	16 1	23 1	75 1	3 1	35 1	25 1	41 1	73 1	74 1	65 1	21 1	5 1	72 1	48 1	54 1	38 1	57 1	20 1	2 1	42 1	43 1
